CapLotSizing_PM/src/Instancias/TCLSLT/6i18p4m/NBB06.dat
6 18 4
 1
       610
       610
       610
       610
    2
     4
     3
     3
     3
     2
   3.2  43.7    62    23 
  2.3  22.6   499    15 
  3.6  22.8   867    25 
  3.4  33.1   376    17 
  3.8  39.3   599    17 
  3.4  42.0   270    18 
  1.9  20.8   593    25 
  4.4  42.9   901    16 
  1.7  46.8   539    22 
  4.1  45.6   173    23 
  1.8  20.0   656    25 
  4.7  36.4   829    20 
  1.2  29.2   503    18 
  3.3  35.3   705    22 
  4.9  48.9   734    24 
  1.5  27.8   659    20 
  1.1  30.9   491    22 
  4.9  13.3   716    19 
  2.9  26.4    84    23 
  3.5  39.0   811    24 
  3.0  19.4    59    19 
  1.2  30.7   896    25 
  4.4  38.2   284    19 
  1.3  47.6   876    22 
  110   173    50   155   148   114 
    4    48   125   160   179   125 
  117    94    72   103   148    44 
  159    68    35   127    58   104 
   45    20   110   149   108    50 
   15     4   149     1   120     9 
   56   100   105    16    24   175 
   23   140   139     4    19   114 
  170    57    10   156    17    29 
   29   105   164    11    62   111 
   94    11     1    99   165    83 
   82    10    99    18    22     9 
   39    24   147    34   102    30 
   71   116   113   140   104    90 
  172   175    60     5   117   128 
   36   155   169    20   145   128 
   60   118    78    16    45    67 
   16   113    17    97   148     2 
